10J3M/DAT/10J3MNTR-6.dat
10 3
31.285 31.9566
19.425 5.2891
19.9695 21.3978
34.24 34.9437
26.7627 32.3735
23.611 18.894
19.2813 20.6623
24.4762 13.6611
26.0751 16.1267
21.0536 45.2345
60.1349