10J3M/SOL/10J3MNTR-6.sol
solution status: optimal solution found
objective value:                      70.936034925994
x#1#2                                               1 	(obj:0)
x#2#1                                0.44429190218698 	(obj:0)
x#2#2                                0.55570809781302 	(obj:0)
x#3#1                                               1 	(obj:0)
x#4#1                               0.180451453144764 	(obj:0)
x#4#3                               0.819548546855236 	(obj:0)
x#5#2                               0.195996858537296 	(obj:0)
x#5#3                               0.343747067822226 	(obj:0)
x#6#2                                               1 	(obj:0)
x#7#1                                               1 	(obj:0)
x#8#1                               0.689494569023589 	(obj:0)
x#8#3                               0.310505430976411 	(obj:0)
x#9#3                                               1 	(obj:0)
z                                     70.936034925994 	(obj:1)
